%%% static parameters %%%
timespan = 1;
Fact = [2];
Distr1 = [5];
Distr2 = [10];
Clients_N = [100];
Demand_W = [15];
Lt0 = [4];
Lt1 = [4];
SS_ = [0.85];
DS_D = [8];
K = [200];
MA = [500];
%%% dynamic parameters %%%
lost_ratio_sales_ret_th = 0.6916854874369371;
lost_ratio_sales_ret_w = 13;
lost_ratio_sales_dis_th = 0.3219423134241288;
lost_ratio_sales_dis_w = 60;
lost_ratio_sales_fac_th = 0.0846429893822378;
lost_ratio_sales_fac_w = 87;
stock_customer_MA_mean_relative_th = 0.35827563425698916;
stock_customer_MA_mean_relative_w = 2;
stock_distributor_MA_mean_relative_th = 0.22383718266856034;
stock_distributor_MA_mean_relative_w = 41;
stock_retailer_MA_mean_relative_th = 0.4384854424543335;
stock_retailer_MA_mean_relative_w = 55;
stock_factory_MA_mean_relative_th = 0.9825587700008994;
stock_factory_MA_mean_relative_w = 91;
